set P := 1 2 3 4 5 6 7 8 9;
set M := 1 2 3 4 5 6;

param n := 3;

param a:  	1 	2 	3 	4 	5 	6 :=
1 			0	1	1	0	1	0
2			0	0	1	0	1	0 
3			1	0	0	1	0	1	
4			1	0	0	1	0	0									
5 			0	0	0	1	0	1
6 			1	0	0	0	0	1
7 			0	1	1	0	1	0
8 			0	0	1	0	1	0
9 			1	0	0	1	0	1;

param w :=
1 1
2 2
3 3
4 4
5 5
6 6;